<?xml version = "1.0" standalone="yes"?>
<!-- This file has been generated by DOcplex version 2.23.222  -->
<CPLEXSolution version="1.0">
 <header
   problemName="CVRP"
   objectiveValue="11702.5"
  />
 <variables>
  <variable name="x_0_1" index="0" value="1.00000"/>
  <variable name="x_0_4" index="3" value="1.00000"/>
  <variable name="x_0_6" index="5" value="1.00000"/>
  <variable name="x_0_7" index="6" value="1.00000"/>
  <variable name="x_0_8" index="7" value="1.00000"/>
  <variable name="x_0_12" index="11" value="1.00000"/>
  <variable name="x_0_13" index="12" value="1.00000"/>
  <variable name="x_0_14" index="13" value="1.00000"/>
  <variable name="x_0_15" index="14" value="1.00000"/>
  <variable name="x_0_16" index="15" value="1.00000"/>
  <variable name="x_0_18" index="17" value="1.00000"/>
  <variable name="x_0_19" index="18" value="1.00000"/>
  <variable name="x_0_20" index="19" value="1.00000"/>
  <variable name="x_1_0" index="20" value="1.00000"/>
  <variable name="x_2_0" index="40" value="1.00000"/>
  <variable name="x_3_11" index="70" value="1.00000"/>
  <variable name="x_4_5" index="84" value="1.00000"/>
  <variable name="x_5_2" index="102" value="1.00000"/>
  <variable name="x_6_3" index="123" value="1.00000"/>
  <variable name="x_7_0" index="140" value="1.00000"/>
  <variable name="x_8_0" index="160" value="1.00000"/>
  <variable name="x_9_0" index="180" value="1.00000"/>
  <variable name="x_10_0" index="200" value="1.00000"/>
  <variable name="x_11_9" index="229" value="1.00000"/>
  <variable name="x_12_0" index="240" value="1.00000"/>
  <variable name="x_13_0" index="260" value="1.00000"/>
  <variable name="x_14_0" index="280" value="1.00000"/>
  <variable name="x_15_17" index="316" value="1.00000"/>
  <variable name="x_16_0" index="320" value="1.00000"/>
  <variable name="x_17_0" index="340" value="1.00000"/>
  <variable name="x_18_0" index="360" value="1.00000"/>
  <variable name="x_19_0" index="380" value="1.00000"/>
  <variable name="x_20_10" index="410" value="1.00000"/>
  <variable name="u_1" index="420" value="20.00000"/>
  <variable name="u_2" index="421" value="24.00000"/>
  <variable name="u_3" index="422" value="13.00000"/>
  <variable name="u_4" index="423" value="17.00000"/>
  <variable name="u_5" index="424" value="21.00000"/>
  <variable name="u_6" index="425" value="7.00000"/>
  <variable name="u_7" index="426" value="20.00000"/>
  <variable name="u_8" index="427" value="20.00000"/>
  <variable name="u_9" index="428" value="25.00000"/>
  <variable name="u_10" index="429" value="25.00000"/>
  <variable name="u_11" index="430" value="24.00000"/>
  <variable name="u_12" index="431" value="15.00000"/>
  <variable name="u_13" index="432" value="20.00000"/>
  <variable name="u_14" index="433" value="18.00000"/>
  <variable name="u_15" index="434" value="23.00000"/>
  <variable name="u_16" index="435" value="16.00000"/>
  <variable name="u_17" index="436" value="24.00000"/>
  <variable name="u_18" index="437" value="20.00000"/>
  <variable name="u_19" index="438" value="18.00000"/>
  <variable name="u_20" index="439" value="4.00000"/>
 </variables>
</CPLEXSolution>
